results/x-long/X-n134-k13.vrp_seed-42.vrp.sol
Route #1: 58 34 41 105 25 113 89 116 129
Route #2: 132 109 17 19 130 80 115 125 128
Route #3: 76 82 133 12 124 33 86 72 3
Route #4: 40 52 101 131 114 11 122 100
Route #5: 47 9 2 39 73 18 96 59
Route #6: 85 106 45 21 46 99 104 57 119
Route #7: 127 48 64 117 49 69 1 92 31
Route #8: 29 61 71 120 111 36 43 79 112
Route #9: 108 6 97 5 121 7 68 30 8 44 67 20 126 55 22 27 4 70 107 84 81 15 63 13
Route #10: 90 66 53 77 23 98 75 28 65 42 93 94 102 88 37 24
Route #11: 103 10 62 32 54 110 123 56
Route #12: 95 60 14 16 51 91 118
Route #13: 83 38 50 35 26 74 87 78
Cost 10916.000000